c 1 root
c 2 CGS
c 3 CGS_IP_CG
c 4 CGS_IP_AMG
c 5 CGS_RED_AMG
c 6 Smoother
c 7 Smoother_JAC
c 8 Smoother_GS
c 9 Smoother_GSAC
c 10 Smoother_GSACBE
c 11 Smoother_GSRB
c 12 Smoother_GSRBAC
c 13 pre
c 14 pre_0
c 15 pre_1
c 16 pre_2
c 17 pre_3
c 18 pre_4
c 19 pre_5
c 20 pre_6
c 21 post
c 22 post_0
c 23 post_1
c 24 post_2
c 25 post_3
c 26 post_4
c 27 post_5
c 28 post_6
c 29 numCore
c 30 numCore_64
c 31 numCore_256
c 32 numCore_1024
c 33 numCore_4096
p cnf 33 109
1 0
2 0
6 0
13 0
21 0
29 0
1 -2 0
2 -3 0
2 -4 0
2 -5 0
1 -6 0
6 -7 0
6 -8 0
6 -9 0
6 -10 0
6 -11 0
6 -12 0
1 -13 0
13 -14 0
13 -15 0
13 -16 0
13 -17 0
13 -18 0
13 -19 0
13 -20 0
1 -21 0
21 -22 0
21 -23 0
21 -24 0
21 -25 0
21 -26 0
21 -27 0
21 -28 0
1 -29 0
29 -30 0
29 -31 0
29 -32 0
29 -33 0
4 5 3 -2 0
-4 -5 0
-4 -3 0
-5 -3 0
8 9 10 11 12 7 -6 0
-8 -9 0
-8 -10 0
-8 -11 0
-8 -12 0
-8 -7 0
-9 -10 0
-9 -11 0
-9 -12 0
-9 -7 0
-10 -11 0
-10 -12 0
-10 -7 0
-11 -12 0
-11 -7 0
-12 -7 0
15 16 17 18 19 20 14 -13 0
-15 -16 0
-15 -17 0
-15 -18 0
-15 -19 0
-15 -20 0
-15 -14 0
-16 -17 0
-16 -18 0
-16 -19 0
-16 -20 0
-16 -14 0
-17 -18 0
-17 -19 0
-17 -20 0
-17 -14 0
-18 -19 0
-18 -20 0
-18 -14 0
-19 -20 0
-19 -14 0
-20 -14 0
23 24 25 26 27 28 22 -21 0
-23 -24 0
-23 -25 0
-23 -26 0
-23 -27 0
-23 -28 0
-23 -22 0
-24 -25 0
-24 -26 0
-24 -27 0
-24 -28 0
-24 -22 0
-25 -26 0
-25 -27 0
-25 -28 0
-25 -22 0
-26 -27 0
-26 -28 0
-26 -22 0
-27 -28 0
-27 -22 0
-28 -22 0
31 32 33 30 -29 0
-31 -32 0
-31 -33 0
-31 -30 0
-32 -33 0
-32 -30 0
-33 -30 0
